; benchmark generated from python API
(set-info :status unknown)
(declare-fun strlen_72_64 () (_ BitVec 64))
(declare-fun args_0_8 () (_ BitVec 8))
(declare-fun strlen_74_64 () (_ BitVec 64))
(declare-fun args_1_8 () (_ BitVec 8))
(declare-fun strlen_78_64 () (_ BitVec 64))
(declare-fun args_2_8 () (_ BitVec 8))
(declare-fun sigaction_oldact_174_1216 () (_ BitVec 1216))
(declare-fun sigaction_oldact_183_1216 () (_ BitVec 1216))
(declare-fun sigaction_oldact_195_1216 () (_ BitVec 1216))
(declare-fun sigaction_oldact_220_1216 () (_ BitVec 1216))
(declare-fun sigaction_oldact_275_1216 () (_ BitVec 1216))
(declare-fun sigaction_oldact_368_1216 () (_ BitVec 1216))
(declare-fun sigaction_oldact_581_1216 () (_ BitVec 1216))
(declare-fun sigaction_oldact_1030_1216 () (_ BitVec 1216))
(assert
 (= (_ bv1 64) strlen_72_64))
(assert
 (let (($x69 (= (_ bv0 8) args_0_8)))
 (not $x69)))
(assert
 (let (($x190 (= (_ bv1 64) strlen_74_64)))
 (not $x190)))
(assert
 (let ((?x365 (bvadd (_ bv576460752303357826 64) strlen_74_64)))
 (let (($x347 (= (_ bv0 8) args_1_8)))
 (let ((?x355 (ite $x347 (_ bv576460752303357826 64) (_ bv576460752303357827 64))))
 (= ?x355 ?x365)))))
(assert
 (let (($x369 (= (_ bv0 8) args_2_8)))
 (let ((?x373 (ite $x369 (_ bv576460752303357828 64) (_ bv576460752303357829 64))))
 (let ((?x375 (bvsub ?x373 (_ bv576460752303357828 64))))
 (= ?x375 strlen_78_64)))))
(assert
 (let ((?x1768 ((_ extract 127 120) sigaction_oldact_174_1216)))
 (let ((?x2294 (bvand ?x1768 (_ bv4 8))))
 (and (distinct (_ bv0 8) ?x2294) true))))
(assert
 (let ((?x2603 ((_ extract 127 120) sigaction_oldact_183_1216)))
 (let ((?x2612 (bvand ?x2603 (_ bv4 8))))
 (= (_ bv0 8) ?x2612))))
(assert
 (let ((?x3286 ((_ extract 127 120) sigaction_oldact_195_1216)))
 (let ((?x3306 (bvand ?x3286 (_ bv4 8))))
 (and (distinct (_ bv0 8) ?x3306) true))))
(assert
 (let ((?x4966 ((_ extract 127 120) sigaction_oldact_220_1216)))
 (let ((?x4951 (bvand ?x4966 (_ bv4 8))))
 (and (distinct (_ bv0 8) ?x4951) true))))
(assert
 (let ((?x8509 ((_ extract 127 120) sigaction_oldact_275_1216)))
 (let ((?x8534 (bvand ?x8509 (_ bv4 8))))
 (= (_ bv0 8) ?x8534))))
(assert
 (let ((?x14882 ((_ extract 127 120) sigaction_oldact_368_1216)))
 (let ((?x14902 (bvand ?x14882 (_ bv4 8))))
 (and (distinct (_ bv0 8) ?x14902) true))))
(assert
 (let ((?x30284 ((_ extract 127 120) sigaction_oldact_581_1216)))
 (let ((?x30309 (bvand ?x30284 (_ bv4 8))))
 (and (distinct (_ bv0 8) ?x30309) true))))
(assert
 (let ((?x58964 ((_ extract 127 120) sigaction_oldact_1030_1216)))
 (let ((?x58976 (bvand ?x58964 (_ bv4 8))))
 (= (_ bv0 8) ?x58976))))
(maximize sigaction_oldact_174_1216)
(minimize sigaction_oldact_581_1216)
(minimize sigaction_oldact_368_1216)
(maximize sigaction_oldact_220_1216)
(minimize args_0_8)
(minimize sigaction_oldact_183_1216)
(maximize sigaction_oldact_195_1216)
(minimize strlen_78_64)
(maximize sigaction_oldact_368_1216)
(minimize sigaction_oldact_220_1216)
(maximize sigaction_oldact_275_1216)
(maximize strlen_78_64)
(minimize sigaction_oldact_1030_1216)
(minimize sigaction_oldact_174_1216)
(minimize sigaction_oldact_195_1216)
(maximize sigaction_oldact_581_1216)
(maximize sigaction_oldact_1030_1216)
(maximize args_2_8)
(minimize args_2_8)
(maximize strlen_74_64)
(maximize args_1_8)
(minimize strlen_74_64)
(maximize sigaction_oldact_183_1216)
(minimize sigaction_oldact_275_1216)
(maximize strlen_72_64)
(minimize args_1_8)
(check-sat)
(get-objectives)
